c User generated cnf file
p cnf 5 19
2 1 -1 0 
3 -1 3 0 
2 5 -5 0 
5 4 -1 0 
2 4 -2 0 
1 -3 4 0 
1 -1 5 0 
2 -1 2 0 
5 -4 2 0 
2 -1 4 0 
4 3 -2 0 
4 1 -3 0 
2 3 -4 0 
5 1 -5 0 
5 1 -3 0 
3 5 -5 0 
3 -2 2 0 
4 -5 1 0 
3 -2 5 0 
